outputs/case_22.model.txt
restrict_investment = True
notification_sent_to_registration_authority = False
order_manager_staff_dismissal_or_suspension = False
suspend_partial_business = False
other_necessary_measures = False
order_provision_reserve_fund = False
order_branch_closure = False
order_director_supervisor_dismissal_or_suspension = False
revoke_statutory_meeting_resolution = False
order_or_prohibit_asset_disposition = False
business_guidance_assigned = False
penalty_measures = True
penalty = False
corrective_action_ordered = True
notify_registration_authority = True
business_guidance_needed = True
violation_of_law_or_regulation = True